NAME : tsp25_20.157.tour
COMMENT : Length = 157
COMMENT : Found by LKH [Keld Helsgaun]
TYPE : TOUR
DIMENSION : 25
TOUR_SECTION
1
2
25
24
8
17
13
5
20
23
18
15
16
14
12
11
9
10
22
7
21
3
19
6
4
-1
EOF
